(declare-const BAV1 Bool)
(declare-const BAV2 Bool)
(declare-const GEN3 Int)
(declare-const GEN2 Int)
(declare-const GEN1 Int)
(set-option :pp.max-depth 100)
(declare-fun p (Int) Bool)
(declare-fun f (Int Real) Bool)
(declare-fun q (Int Bool) Bool)
(declare-fun a () Int)
(push)
(assert (= (q GEN1 (and (forall ((x Int)) (p x)) (p GEN2))) (p GEN3)))
(apply snf)
(echo "-----")
(apply nnf)
(pop)
(assert (= BAV1 (= (q GEN1 (and (forall ((x Int)) (p x)) (p GEN2))) (p GEN3))))
(assert (= BAV2 (and (forall ((x Int)) (p x)) (p GEN2))))